data;
set AIRPLANES := Av1 Av2 Av3 Av4 Av5;
set SLOTS := Standard LeisurePlus BusinessPlus;

param baggage :=
Standard 1
LeisurePlus 20
BusinessPlus 40;

param pricing:=
Standard 19
LeisurePlus 49
BusinessPlus 69;

param totalAirplaneSeats :=
Av1 90
Av2 120
Av3 200
Av4 150
Av5 190;

param capacity :=
Av1 1700
Av2 2700
Av3 1300
Av4 1700
Av5 2000;



end;
